db/data/2237524522191341305220147262351214626861.z3.out
-------------------
2500.123045295
